p cnf 999 577
124 0
138 0
195 0
221 0
265 0
289 0
319 0
332 0
371 0
386 0
462 0
499 0
544 0
573 0
582 0
669 0
674 0
696 0
757 0
834 0
926 0
931 0
955 0
978 0
997 0
-121 0
-122 0
-123 0
-125 0
-126 0
-127 0
-128 0
-129 0
-131 0
-132 0
-133 0
-134 0
-135 0
-136 0
-137 0
-139 0
-191 0
-192 0
-193 0
-194 0
-196 0
-197 0
-198 0
-199 0
-222 0
-223 0
-224 0
-225 0
-226 0
-227 0
-228 0
-229 0
-261 0
-262 0
-263 0
-264 0
-266 0
-267 0
-268 0
-269 0
-281 0
-282 0
-283 0
-284 0
-285 0
-286 0
-287 0
-288 0
-311 0
-312 0
-313 0
-314 0
-315 0
-316 0
-317 0
-318 0
-331 0
-333 0
-334 0
-335 0
-336 0
-337 0
-338 0
-339 0
-372 0
-373 0
-374 0
-375 0
-376 0
-377 0
-378 0
-379 0
-381 0
-382 0
-383 0
-384 0
-385 0
-387 0
-388 0
-389 0
-461 0
-463 0
-464 0
-465 0
-466 0
-467 0
-468 0
-469 0
-491 0
-492 0
-493 0
-494 0
-495 0
-496 0
-497 0
-498 0
-541 0
-542 0
-543 0
-545 0
-546 0
-547 0
-548 0
-549 0
-571 0
-572 0
-574 0
-575 0
-576 0
-577 0
-578 0
-579 0
-581 0
-583 0
-584 0
-585 0
-586 0
-587 0
-588 0
-589 0
-661 0
-662 0
-663 0
-664 0
-665 0
-666 0
-667 0
-668 0
-671 0
-672 0
-673 0
-675 0
-676 0
-677 0
-678 0
-679 0
-691 0
-692 0
-693 0
-694 0
-695 0
-697 0
-698 0
-699 0
-751 0
-752 0
-753 0
-754 0
-755 0
-756 0
-758 0
-759 0
-831 0
-832 0
-833 0
-835 0
-836 0
-837 0
-838 0
-839 0
-921 0
-922 0
-923 0
-924 0
-925 0
-927 0
-928 0
-929 0
-932 0
-933 0
-934 0
-935 0
-936 0
-937 0
-938 0
-939 0
-951 0
-952 0
-953 0
-954 0
-956 0
-957 0
-958 0
-959 0
-971 0
-972 0
-973 0
-974 0
-975 0
-976 0
-977 0
-979 0
-991 0
-992 0
-993 0
-994 0
-995 0
-996 0
-998 0
-999 0
-111 0
-211 0
-231 0
-321 0
-112 0
-212 0
-232 0
-322 0
-114 0
-214 0
-234 0
-324 0
-118 0
-218 0
-238 0
-328 0
-119 0
-219 0
-239 0
-329 0
-145 0
-155 0
-165 0
-245 0
-255 0
-345 0
-355 0
-365 0
-171 0
-181 0
-271 0
-291 0
-391 0
-175 0
-185 0
-275 0
-295 0
-395 0
-176 0
-186 0
-276 0
-296 0
-396 0
-179 0
-189 0
-279 0
-299 0
-399 0
-442 0
-452 0
-552 0
-562 0
-642 0
-652 0
-444 0
-454 0
-554 0
-564 0
-644 0
-654 0
-449 0
-459 0
-559 0
-569 0
-649 0
-659 0
-472 0
-482 0
-592 0
-682 0
-473 0
-483 0
-593 0
-683 0
-474 0
-484 0
-594 0
-684 0
-476 0
-486 0
-596 0
-686 0
-479 0
-489 0
-599 0
-689 0
-711 0
-721 0
-731 0
-811 0
-821 0
-911 0
-714 0
-724 0
-734 0
-814 0
-824 0
-914 0
-716 0
-726 0
-736 0
-816 0
-826 0
-916 0
-745 0
-765 0
-845 0
-855 0
-865 0
-945 0
-965 0
-747 0
-767 0
-847 0
-857 0
-867 0
-947 0
-967 0
-777 0
-787 0
-797 0
-877 0
-887 0
-897 0
-987 0
-778 0
-788 0
-798 0
-878 0
-888 0
-898 0
-988 0
-144 0
-154 0
-164 0
-174 0
-184 0
-115 0
-148 0
-158 0
-168 0
-178 0
-188 0
-241 0
-251 0
-215 0
-235 0
-249 0
-259 0
-341 0
-351 0
-361 0
-342 0
-352 0
-362 0
-392 0
-326 0
-346 0
-356 0
-366 0
-349 0
-359 0
-369 0
-412 0
-422 0
-432 0
-419 0
-429 0
-439 0
-512 0
-522 0
-532 0
-513 0
-523 0
-533 0
-553 0
-563 0
-514 0
-524 0
-534 0
-614 0
-624 0
-634 0
-616 0
-626 0
-636 0
-646 0
-656 0
-619 0
-629 0
-639 0
-717 0
-727 0
-737 0
-844 0
-854 0
-864 0
-874 0
-884 0
-894 0
-941 0
-961 0
-981 0
-915 0
-985 0
-946 0
-966 0
-986 0
-917 0
-918 0
-948 0
-968 0
-519 0
-719 0
-819 0
-919 0
-421 0
-521 0
-621 0
-424 0
-426 0
-526 0
-431 0
-531 0
-631 0
-632 0
-732 0
-434 0
-438 0
-538 0
-638 0
-738 0
-244 0
-344 0
-744 0
-944 0
-455 0
-555 0
-655 0
-157 0
-257 0
-357 0
-457 0
-557 0
-657 0
-162 0
-762 0
-862 0
-962 0
-565 0
-169 0
-769 0
-869 0
-969 0
-471 0
-771 0
-871 0
-173 0
-273 0
-773 0
-873 0
-274 0
-774 0
-278 0
-478 0
-182 0
-782 0
-882 0
-982 0
-786 0
-886 0
-789 0
-889 0
-989 0
-595 0
-795 0
-895 0
-796 0
-896 0
-297 0
-397 0
-597 0
-799 0
-899 0
325 0
414 0
949 0
-323 0
-327 0
-411 0
-413 0
-415 0
-416 0
-417 0
-418 0
-942 0
-943 0
-749 0
-849 0
-859 0
-425 0
-525 0
-625 0
-725 0
-825 0
-149 0
159 0
912 0
-151 0
-152 0
-153 0
-156 0
-913 0
-712 0
-722 0
-812 0
-822 0
-612 0
622 0
-623 0
-627 0
-628 0
784 0
-781 0
-783 0
-785 0
-794 0
-984 0
-764 0
983 0
964 0
-963 0
-793 0
-883 0
-893 0
-364 0
-183 0
187 0
-177 0
-277 0
-117 0
-147 0
-167 0
-487 0
-687 0
172 0
272 0
477 0
-292 0
-142 0
-772 0
-872 0